    units        real
    atom_style   full
    pair_style   reaxff control.reax_c.rdx checkqeq yes
