

# ----------------- Init Section -----------------

include "system.in.init"


# ----------------- Atom Definition Section -----------------

read_data "run.data"

# ----------------- Settings Section -----------------

include "system.in.settings"

dump               1     all xyz  100  simulation.ANI
dump_modify        1     element   C H O N
dump_modify        1     sort id

fix charge_equilibration all qeq/reaxff 1 0.0 10.0 1.0e-6 reaxff maxiter 500


group n2 molecule 1
group m molecule 2


thermo_style custom step time temp pe ke evdwl ecoul etotal 
thermo 100


minimize 1.0e-8 1.0e-10 1000 10000

velocity all create 1000.0 4928459 rot yes dist gaussian

# displace_atoms n2 move -5.9 -5 -5 
#displace_atoms n2 move -5.9 -5 -5

timestep 0.25



fix 1 all nvt temp 1000.0 1000.0 100.0


run 100000

delete_atoms group n2

run 10000


